70
1 0 7
2 0 6
2 1 1
3 0 3
3 1 8
3 2 8
4 0 6
4 1 2
4 2 3
4 3 8
5 0 4
5 1 7
5 2 1
5 3 6
5 4 1
6 0 1
6 1 6
6 2 4
6 3 8
6 4 2
6 5 8
7 0 7
7 1 1
7 2 6
7 3 5
7 4 8
7 5 5
7 6 1
8 0 8
8 1 1
8 2 7
8 3 1
8 4 6
8 5 2
8 6 1
8 7 2
9 0 4
9 1 2
9 2 2
9 3 4
9 4 6
9 5 7
9 6 1
9 7 5
9 8 1
10 0 2
10 1 7
10 2 8
10 3 7
10 4 6
10 5 6
10 6 1
10 7 4
10 8 4
10 9 7
11 0 2
11 1 5
11 2 1
11 3 7
11 4 4
11 5 1
11 6 3
11 7 4
11 8 6
11 9 8
11 10 3
12 0 8
12 1 2
12 2 1
12 3 8
12 4 1
12 5 1
12 6 5
12 7 2
12 8 6
12 9 7
12 10 4
12 11 6
13 0 4
13 1 3
13 2 3
13 3 6
13 4 1
13 5 1
13 6 8
13 7 3
13 8 6
13 9 7
13 10 3
13 11 5
13 12 8
14 0 6
14 1 3
14 2 8
14 3 4
14 4 1
14 5 5
14 6 1
14 7 6
14 8 8
14 9 4
14 10 3
14 11 4
14 12 2
14 13 6
15 0 1
15 1 7
15 2 3
15 3 7
15 4 7
15 5 4
15 6 3
15 7 3
15 8 4
15 9 6
15 10 8
15 11 8
15 12 2
15 13 3
15 14 7
16 0 4
16 1 5
16 2 7
16 3 3
16 4 1
16 5 1
16 6 3
16 7 5
16 8 6
16 9 5
16 10 2
16 11 6
16 12 5
16 13 5
16 14 2
16 15 8
17 0 5
17 1 8
17 2 7
17 3 3
17 4 2
17 5 2
17 6 1
17 7 2
17 8 4
17 9 2
17 10 1
17 11 8
17 12 4
17 13 2
17 14 4
17 15 2
17 16 8
18 0 7
18 1 4
18 2 7
18 3 8
18 4 3
18 5 4
18 6 3
18 7 3
18 8 6
18 9 8
18 10 5
18 11 2
18 12 3
18 13 3
18 14 5
18 15 1
18 16 1
18 17 6
19 0 3
19 1 4
19 2 7
19 3 4
19 4 2
19 5 7
19 6 7
19 7 1
19 8 6
19 9 1
19 10 7
19 11 5
19 12 1
19 13 6
19 14 8
19 15 6
19 16 5
19 17 6
19 18 3
20 0 1
20 1 7
20 2 3
20 3 5
20 4 8
20 5 7
20 6 2
20 7 1
20 8 8
20 9 4
20 10 5
20 11 1
20 12 8
20 13 2
20 14 8
20 15 1
20 16 8
20 17 1
20 18 7
20 19 1
21 0 4
21 1 8
21 2 8
21 3 7
21 4 3
21 5 6
21 6 7
21 7 1
21 8 6
21 9 6
21 10 8
21 11 5
21 12 4
21 13 1
21 14 1
21 15 7
21 16 3
21 17 5
21 18 4
21 19 4
21 20 8
22 0 8
22 1 3
22 2 3
22 3 3
22 4 1
22 5 2
22 6 3
22 7 4
22 8 1
22 9 5
22 10 1
22 11 3
22 12 3
22 13 8
22 14 1
22 15 7
22 16 2
22 17 4
22 18 1
22 19 5
22 20 7
22 21 6
23 0 6
23 1 3
23 2 1
23 3 3
23 4 1
23 5 5
23 6 2
23 7 5
23 8 3
23 9 2
23 10 8
23 11 4
23 12 2
23 13 3
23 14 1
23 15 5
23 16 3
23 17 8
23 18 1
23 19 1
23 20 7
23 21 4
23 22 8
24 0 7
24 1 6
24 2 2
24 3 6
24 4 6
24 5 4
24 6 3
24 7 5
24 8 7
24 9 6
24 10 3
24 11 7
24 12 7
24 13 7
24 14 5
24 15 6
24 16 7
24 17 2
24 18 4
24 19 8
24 20 8
24 21 1
24 22 4
24 23 6
25 0 5
25 1 7
25 2 2
25 3 5
25 4 5
25 5 6
25 6 8
25 7 7
25 8 4
25 9 7
25 10 3
25 11 1
25 12 6
25 13 1
25 14 6
25 15 8
25 16 6
25 17 5
25 18 7
25 19 8
25 20 3
25 21 8
25 22 3
25 23 8
25 24 8
26 0 4
26 1 1
26 2 7
26 3 1
26 4 2
26 5 4
26 6 3
26 7 7
26 8 5
26 9 4
26 10 8
26 11 8
26 12 4
26 13 4
26 14 5
26 15 5
26 16 5
26 17 6
26 18 1
26 19 4
26 20 5
26 21 7
26 22 5
26 23 1
26 24 1
26 25 6
27 0 5
27 1 3
27 2 8
27 3 4
27 4 7
27 5 5
27 6 5
27 7 8
27 8 3
27 9 8
27 10 4
27 11 7
27 12 6
27 13 6
27 14 3
27 15 7
27 16 4
27 17 8
27 18 7
27 19 6
27 20 5
27 21 1
27 22 1
27 23 1
27 24 4
27 25 7
27 26 8
28 0 8
28 1 6
28 2 4
28 3 3
28 4 1
28 5 2
28 6 3
28 7 4
28 8 6
28 9 6
28 10 5
28 11 6
28 12 4
28 13 8
28 14 2
28 15 4
28 16 6
28 17 8
28 18 2
28 19 1
28 20 1
28 21 4
28 22 1
28 23 4
28 24 1
28 25 4
28 26 5
28 27 6
29 0 5
29 1 8
29 2 3
29 3 2
29 4 4
29 5 6
29 6 6
29 7 3
29 8 4
29 9 8
29 10 7
29 11 8
29 12 7
29 13 5
29 14 2
29 15 5
29 16 6
29 17 1
29 18 3
29 19 7
29 20 5
29 21 7
29 22 8
29 23 2
29 24 3
29 25 6
29 26 5
29 27 2
29 28 1
30 0 4
30 1 5
30 2 8
30 3 8
30 4 8
30 5 3
30 6 2
30 7 4
30 8 6
30 9 7
30 10 3
30 11 6
30 12 3
30 13 5
30 14 7
30 15 8
30 16 5
30 17 3
30 18 7
30 19 7
30 20 1
30 21 4
30 22 3
30 23 1
30 24 5
30 25 5
30 26 2
30 27 3
30 28 6
30 29 2
31 0 7
31 1 2
31 2 4
31 3 5
31 4 1
31 5 7
31 6 5
31 7 8
31 8 8
31 9 5
31 10 1
31 11 3
31 12 2
31 13 8
31 14 8
31 15 5
31 16 6
31 17 2
31 18 8
31 19 3
31 20 7
31 21 2
31 22 7
31 23 1
31 24 6
31 25 6
31 26 8
31 27 4
31 28 4
31 29 3
31 30 6
32 0 5
32 1 7
32 2 2
32 3 3
32 4 4
32 5 4
32 6 4
32 7 1
32 8 5
32 9 2
32 10 8
32 11 3
32 12 2
32 13 4
32 14 3
32 15 1
32 16 3
32 17 8
32 18 5
32 19 3
32 20 1
32 21 8
32 22 2
32 23 8
32 24 3
32 25 2
32 26 1
32 27 3
32 28 1
32 29 7
32 30 1
32 31 6
33 0 5
33 1 8
33 2 2
33 3 7
33 4 8
33 5 3
33 6 1
33 7 8
33 8 7
33 9 6
33 10 4
33 11 2
33 12 3
33 13 5
33 14 2
33 15 8
33 16 4
33 17 4
33 18 5
33 19 5
33 20 8
33 21 7
33 22 6
33 23 8
33 24 7
33 25 3
33 26 6
33 27 1
33 28 3
33 29 8
33 30 3
33 31 7
33 32 7
34 0 4
34 1 8
34 2 4
34 3 7
34 4 6
34 5 1
34 6 2
34 7 2
34 8 6
34 9 2
34 10 2
34 11 6
34 12 5
34 13 1
34 14 8
34 15 2
34 16 4
34 17 8
34 18 3
34 19 3
34 20 2
34 21 8
34 22 5
34 23 7
34 24 1
34 25 8
34 26 3
34 27 3
34 28 4
34 29 6
34 30 2
34 31 3
34 32 2
34 33 2
35 0 2
35 1 6
35 2 3
35 3 7
35 4 1
35 5 1
35 6 5
35 7 8
35 8 2
35 9 8
35 10 7
35 11 3
35 12 7
35 13 2
35 14 4
35 15 6
35 16 5
35 17 4
35 18 1
35 19 7
35 20 2
35 21 3
35 22 1
35 23 7
35 24 2
35 25 4
35 26 7
35 27 4
35 28 7
35 29 4
35 30 1
35 31 1
35 32 4
35 33 1
35 34 7
36 0 2
36 1 4
36 2 1
36 3 1
36 4 7
36 5 4
36 6 1
36 7 6
36 8 6
36 9 3
36 10 2
36 11 7
36 12 5
36 13 2
36 14 3
36 15 3
36 16 6
36 17 1
36 18 4
36 19 1
36 20 5
36 21 1
36 22 5
36 23 6
36 24 3
36 25 6
36 26 5
36 27 5
36 28 3
36 29 3
36 30 2
36 31 6
36 32 4
36 33 3
36 34 3
36 35 6
37 0 2
37 1 5
37 2 5
37 3 8
37 4 3
37 5 1
37 6 2
37 7 5
37 8 2
37 9 6
37 10 4
37 11 6
37 12 1
37 13 2
37 14 8
37 15 8
37 16 6
37 17 6
37 18 7
37 19 8
37 20 2
37 21 5
37 22 2
37 23 4
37 24 1
37 25 1
37 26 4
37 27 3
37 28 8
37 29 8
37 30 8
37 31 5
37 32 4
37 33 5
37 34 7
37 35 3
37 36 4
38 0 8
38 1 4
38 2 2
38 3 6
38 4 2
38 5 4
38 6 3
38 7 6
38 8 3
38 9 1
38 10 1
38 11 5
38 12 7
38 13 2
38 14 8
38 15 3
38 16 1
38 17 3
38 18 5
38 19 1
38 20 3
38 21 3
38 22 6
38 23 1
38 24 7
38 25 7
38 26 2
38 27 7
38 28 7
38 29 8
38 30 6
38 31 2
38 32 5
38 33 3
38 34 5
38 35 2
38 36 8
38 37 7
39 0 6
39 1 2
39 2 7
39 3 2
39 4 7
39 5 2
39 6 1
39 7 2
39 8 2
39 9 4
39 10 4
39 11 3
39 12 6
39 13 2
39 14 3
39 15 4
39 16 4
39 17 2
39 18 4
39 19 6
39 20 6
39 21 2
39 22 5
39 23 7
39 24 6
39 25 5
39 26 3
39 27 2
39 28 4
39 29 1
39 30 2
39 31 3
39 32 3
39 33 6
39 34 7
39 35 6
39 36 6
39 37 8
39 38 4
40 0 2
40 1 8
40 2 6
40 3 6
40 4 6
40 5 3
40 6 1
40 7 4
40 8 8
40 9 1
40 10 6
40 11 3
40 12 5
40 13 6
40 14 6
40 15 5
40 16 7
40 17 5
40 18 7
40 19 5
40 20 6
40 21 6
40 22 3
40 23 3
40 24 7
40 25 6
40 26 6
40 27 7
40 28 8
40 29 5
40 30 8
40 31 7
40 32 5
40 33 3
40 34 1
40 35 3
40 36 4
40 37 4
40 38 3
40 39 7
41 0 4
41 1 5
41 2 7
41 3 5
41 4 5
41 5 8
41 6 6
41 7 5
41 8 1
41 9 6
41 10 4
41 11 6
41 12 1
41 13 3
41 14 7
41 15 6
41 16 8
41 17 8
41 18 2
41 19 7
41 20 7
41 21 7
41 22 6
41 23 6
41 24 7
41 25 6
41 26 3
41 27 5
41 28 6
41 29 1
41 30 6
41 31 5
41 32 7
41 33 1
41 34 3
41 35 6
41 36 7
41 37 5
41 38 4
41 39 2
41 40 2
42 0 6
42 1 1
42 2 1
42 3 6
42 4 3
42 5 5
42 6 6
42 7 1
42 8 4
42 9 7
42 10 4
42 11 5
42 12 1
42 13 8
42 14 7
42 15 2
42 16 8
42 17 2
42 18 3
42 19 5
42 20 6
42 21 4
42 22 2
42 23 1
42 24 1
42 25 4
42 26 1
42 27 5
42 28 2
42 29 8
42 30 3
42 31 8
42 32 1
42 33 2
42 34 4
42 35 8
42 36 2
42 37 7
42 38 4
42 39 7
42 40 1
42 41 8
43 0 6
43 1 4
43 2 7
43 3 1
43 4 5
43 5 8
43 6 6
43 7 1
43 8 5
43 9 4
43 10 2
43 11 7
43 12 4
43 13 7
43 14 6
43 15 4
43 16 5
43 17 8
43 18 4
43 19 5
43 20 7
43 21 2
43 22 8
43 23 7
43 24 1
43 25 7
43 26 1
43 27 7
43 28 3
43 29 2
43 30 4
43 31 8
43 32 5
43 33 7
43 34 5
43 35 5
43 36 8
43 37 2
43 38 7
43 39 2
43 40 7
43 41 7
43 42 3
44 0 7
44 1 2
44 2 5
44 3 6
44 4 4
44 5 3
44 6 8
44 7 1
44 8 1
44 9 1
44 10 5
44 11 8
44 12 2
44 13 2
44 14 7
44 15 3
44 16 3
44 17 8
44 18 2
44 19 8
44 20 8
44 21 8
44 22 5
44 23 2
44 24 2
44 25 1
44 26 6
44 27 1
44 28 5
44 29 3
44 30 7
44 31 8
44 32 3
44 33 4
44 34 8
44 35 2
44 36 5
44 37 2
44 38 5
44 39 2
44 40 3
44 41 7
44 42 2
44 43 6
45 0 7
45 1 4
45 2 8
45 3 8
45 4 7
45 5 1
45 6 4
45 7 7
45 8 4
45 9 4
45 10 4
45 11 7
45 12 7
45 13 3
45 14 6
45 15 4
45 16 5
45 17 2
45 18 6
45 19 3
45 20 1
45 21 3
45 22 8
45 23 7
45 24 1
45 25 3
45 26 3
45 27 6
45 28 8
45 29 2
45 30 6
45 31 3
45 32 3
45 33 2
45 34 8
45 35 4
45 36 1
45 37 2
45 38 2
45 39 2
45 40 8
45 41 2
45 42 8
45 43 1
45 44 8
46 0 6
46 1 6
46 2 3
46 3 2
46 4 7
46 5 1
46 6 4
46 7 5
46 8 7
46 9 3
46 10 7
46 11 8
46 12 2
46 13 7
46 14 5
46 15 2
46 16 3
46 17 6
46 18 3
46 19 7
46 20 4
46 21 8
46 22 2
46 23 5
46 24 2
46 25 1
46 26 5
46 27 2
46 28 3
46 29 1
46 30 8
46 31 3
46 32 1
46 33 4
46 34 5
46 35 2
46 36 3
46 37 4
46 38 3
46 39 1
46 40 8
46 41 4
46 42 3
46 43 5
46 44 4
46 45 1
47 0 1
47 1 6
47 2 7
47 3 8
47 4 8
47 5 8
47 6 6
47 7 8
47 8 3
47 9 2
47 10 5
47 11 7
47 12 3
47 13 7
47 14 2
47 15 4
47 16 6
47 17 4
47 18 5
47 19 1
47 20 2
47 21 7
47 22 3
47 23 7
47 24 1
47 25 2
47 26 6
47 27 6
47 28 8
47 29 8
47 30 3
47 31 8
47 32 7
47 33 3
47 34 2
47 35 4
47 36 5
47 37 5
47 38 6
47 39 2
47 40 1
47 41 1
47 42 6
47 43 8
47 44 6
47 45 5
47 46 7
48 0 3
48 1 4
48 2 5
48 3 7
48 4 5
48 5 4
48 6 8
48 7 8
48 8 6
48 9 5
48 10 6
48 11 8
48 12 2
48 13 6
48 14 7
48 15 5
48 16 6
48 17 4
48 18 6
48 19 1
48 20 2
48 21 2
48 22 8
48 23 1
48 24 5
48 25 4
48 26 7
48 27 2
48 28 7
48 29 7
48 30 7
48 31 6
48 32 4
48 33 1
48 34 8
48 35 7
48 36 2
48 37 1
48 38 2
48 39 3
48 40 4
48 41 1
48 42 2
48 43 7
48 44 3
48 45 6
48 46 3
48 47 7
49 0 3
49 1 7
49 2 5
49 3 4
49 4 1
49 5 2
49 6 6
49 7 3
49 8 2
49 9 3
49 10 2
49 11 7
49 12 1
49 13 6
49 14 3
49 15 8
49 16 5
49 17 1
49 18 3
49 19 7
49 20 5
49 21 4
49 22 2
49 23 5
49 24 4
49 25 5
49 26 5
49 27 2
49 28 4
49 29 8
49 30 5
49 31 3
49 32 1
49 33 1
49 34 1
49 35 7
49 36 4
49 37 8
49 38 3
49 39 5
49 40 7
49 41 8
49 42 1
49 43 5
49 44 6
49 45 8
49 46 8
49 47 5
49 48 4
50 0 1
50 1 8
50 2 5
50 3 8
50 4 5
50 5 5
50 6 4
50 7 5
50 8 7
50 9 3
50 10 7
50 11 3
50 12 7
50 13 8
50 14 3
50 15 1
50 16 1
50 17 3
50 18 7
50 19 7
50 20 3
50 21 6
50 22 1
50 23 6
50 24 7
50 25 8
50 26 7
50 27 6
50 28 3
50 29 2
50 30 6
50 31 7
50 32 1
50 33 3
50 34 1
50 35 4
50 36 2
50 37 8
50 38 2
50 39 3
50 40 4
50 41 1
50 42 3
50 43 3
50 44 6
50 45 4
50 46 4
50 47 1
50 48 5
50 49 7
51 0 3
51 1 2
51 2 3
51 3 1
51 4 4
51 5 7
51 6 6
51 7 7
51 8 7
51 9 6
51 10 5
51 11 5
51 12 8
51 13 5
51 14 5
51 15 6
51 16 3
51 17 6
51 18 1
51 19 2
51 20 4
51 21 3
51 22 3
51 23 3
51 24 1
51 25 8
51 26 5
51 27 4
51 28 6
51 29 1
51 30 7
51 31 1
51 32 2
51 33 7
51 34 8
51 35 2
51 36 8
51 37 6
51 38 7
51 39 2
51 40 8
51 41 3
51 42 5
51 43 3
51 44 4
51 45 2
51 46 8
51 47 5
51 48 3
51 49 5
51 50 7
52 0 1
52 1 7
52 2 3
52 3 1
52 4 2
52 5 8
52 6 5
52 7 8
52 8 7
52 9 3
52 10 5
52 11 3
52 12 7
52 13 8
52 14 4
52 15 2
52 16 1
52 17 7
52 18 1
52 19 4
52 20 4
52 21 5
52 22 1
52 23 6
52 24 6
52 25 6
52 26 2
52 27 1
52 28 3
52 29 6
52 30 1
52 31 2
52 32 7
52 33 6
52 34 5
52 35 1
52 36 5
52 37 7
52 38 3
52 39 7
52 40 4
52 41 3
52 42 5
52 43 6
52 44 6
52 45 2
52 46 5
52 47 6
52 48 8
52 49 5
52 50 3
52 51 6
53 0 1
53 1 3
53 2 8
53 3 6
53 4 3
53 5 2
53 6 7
53 7 7
53 8 2
53 9 6
53 10 8
53 11 4
53 12 2
53 13 8
53 14 2
53 15 4
53 16 2
53 17 7
53 18 1
53 19 7
53 20 1
53 21 3
53 22 5
53 23 3
53 24 1
53 25 6
53 26 2
53 27 3
53 28 3
53 29 8
53 30 3
53 31 4
53 32 7
53 33 8
53 34 6
53 35 7
53 36 8
53 37 2
53 38 1
53 39 2
53 40 3
53 41 3
53 42 4
53 43 7
53 44 1
53 45 2
53 46 4
53 47 3
53 48 2
53 49 7
53 50 6
53 51 7
53 52 8
54 0 6
54 1 6
54 2 3
54 3 7
54 4 3
54 5 3
54 6 8
54 7 8
54 8 8
54 9 1
54 10 2
54 11 4
54 12 3
54 13 7
54 14 6
54 15 4
54 16 5
54 17 3
54 18 8
54 19 5
54 20 2
54 21 5
54 22 3
54 23 4
54 24 8
54 25 6
54 26 2
54 27 3
54 28 3
54 29 5
54 30 2
54 31 1
54 32 5
54 33 2
54 34 2
54 35 2
54 36 2
54 37 7
54 38 7
54 39 4
54 40 1
54 41 5
54 42 2
54 43 4
54 44 7
54 45 3
54 46 4
54 47 5
54 48 5
54 49 2
54 50 3
54 51 7
54 52 2
54 53 1
55 0 6
55 1 1
55 2 7
55 3 4
55 4 2
55 5 1
55 6 8
55 7 5
55 8 5
55 9 3
55 10 6
55 11 8
55 12 4
55 13 1
55 14 1
55 15 8
55 16 6
55 17 8
55 18 4
55 19 6
55 20 2
55 21 4
55 22 2
55 23 4
55 24 2
55 25 5
55 26 6
55 27 4
55 28 1
55 29 1
55 30 2
55 31 2
55 32 6
55 33 8
55 34 7
55 35 6
55 36 4
55 37 3
55 38 8
55 39 3
55 40 1
55 41 7
55 42 2
55 43 8
55 44 8
55 45 7
55 46 7
55 47 5
55 48 7
55 49 3
55 50 8
55 51 7
55 52 3
55 53 1
55 54 1
56 0 4
56 1 7
56 2 2
56 3 2
56 4 2
56 5 7
56 6 6
56 7 2
56 8 3
56 9 5
56 10 6
56 11 1
56 12 7
56 13 1
56 14 1
56 15 6
56 16 2
56 17 6
56 18 3
56 19 7
56 20 5
56 21 8
56 22 6
56 23 6
56 24 4
56 25 6
56 26 2
56 27 2
56 28 7
56 29 7
56 30 2
56 31 5
56 32 4
56 33 8
56 34 3
56 35 3
56 36 5
56 37 2
56 38 2
56 39 4
56 40 8
56 41 3
56 42 1
56 43 3
56 44 7
56 45 8
56 46 2
56 47 3
56 48 2
56 49 8
56 50 2
56 51 7
56 52 1
56 53 6
56 54 2
56 55 2
57 0 3
57 1 1
57 2 5
57 3 1
57 4 5
57 5 6
57 6 2
57 7 7
57 8 3
57 9 2
57 10 4
57 11 6
57 12 7
57 13 6
57 14 5
57 15 7
57 16 3
57 17 8
57 18 5
57 19 1
57 20 2
57 21 3
57 22 5
57 23 4
57 24 8
57 25 1
57 26 7
57 27 5
57 28 3
57 29 1
57 30 2
57 31 5
57 32 6
57 33 3
57 34 2
57 35 6
57 36 1
57 37 5
57 38 5
57 39 5
57 40 1
57 41 1
57 42 4
57 43 1
57 44 3
57 45 8
57 46 6
57 47 2
57 48 3
57 49 4
57 50 3
57 51 8
57 52 7
57 53 6
57 54 2
57 55 5
57 56 4
58 0 6
58 1 5
58 2 3
58 3 8
58 4 6
58 5 2
58 6 5
58 7 4
58 8 5
58 9 1
58 10 2
58 11 5
58 12 6
58 13 6
58 14 1
58 15 2
58 16 2
58 17 1
58 18 4
58 19 2
58 20 1
58 21 5
58 22 8
58 23 2
58 24 5
58 25 1
58 26 7
58 27 6
58 28 8
58 29 6
58 30 1
58 31 3
58 32 5
58 33 4
58 34 1
58 35 6
58 36 6
58 37 6
58 38 8
58 39 8
58 40 5
58 41 8
58 42 6
58 43 3
58 44 1
58 45 7
58 46 6
58 47 6
58 48 7
58 49 6
58 50 6
58 51 5
58 52 1
58 53 4
58 54 6
58 55 2
58 56 7
58 57 6
59 0 7
59 1 4
59 2 5
59 3 6
59 4 2
59 5 7
59 6 8
59 7 3
59 8 1
59 9 4
59 10 1
59 11 6
59 12 2
59 13 3
59 14 8
59 15 3
59 16 5
59 17 5
59 18 4
59 19 2
59 20 7
59 21 7
59 22 8
59 23 5
59 24 1
59 25 8
59 26 7
59 27 3
59 28 6
59 29 7
59 30 6
59 31 2
59 32 1
59 33 7
59 34 5
59 35 6
59 36 5
59 37 8
59 38 1
59 39 6
59 40 4
59 41 7
59 42 2
59 43 3
59 44 7
59 45 6
59 46 3
59 47 8
59 48 6
59 49 6
59 50 4
59 51 7
59 52 3
59 53 8
59 54 3
59 55 2
59 56 7
59 57 7
59 58 7
60 0 2
60 1 5
60 2 8
60 3 3
60 4 1
60 5 7
60 6 5
60 7 4
60 8 4
60 9 5
60 10 7
60 11 6
60 12 8
60 13 5
60 14 1
60 15 6
60 16 1
60 17 4
60 18 6
60 19 4
60 20 8
60 21 8
60 22 7
60 23 7
60 24 5
60 25 2
60 26 8
60 27 4
60 28 1
60 29 5
60 30 8
60 31 6
60 32 4
60 33 2
60 34 3
60 35 2
60 36 6
60 37 2
60 38 6
60 39 2
60 40 1
60 41 4
60 42 3
60 43 6
60 44 6
60 45 4
60 46 1
60 47 1
60 48 1
60 49 2
60 50 5
60 51 1
60 52 2
60 53 4
60 54 5
60 55 5
60 56 8
60 57 2
60 58 7
60 59 2
61 0 6
61 1 5
61 2 6
61 3 6
61 4 4
61 5 1
61 6 4
61 7 7
61 8 7
61 9 5
61 10 5
61 11 2
61 12 6
61 13 6
61 14 4
61 15 6
61 16 2
61 17 1
61 18 7
61 19 7
61 20 2
61 21 8
61 22 2
61 23 7
61 24 4
61 25 5
61 26 4
61 27 6
61 28 3
61 29 4
61 30 2
61 31 4
61 32 3
61 33 4
61 34 3
61 35 5
61 36 7
61 37 6
61 38 4
61 39 1
61 40 1
61 41 2
61 42 1
61 43 2
61 44 4
61 45 3
61 46 8
61 47 4
61 48 6
61 49 2
61 50 1
61 51 7
61 52 7
61 53 8
61 54 1
61 55 8
61 56 8
61 57 3
61 58 4
61 59 1
61 60 2
62 0 6
62 1 5
62 2 2
62 3 5
62 4 7
62 5 2
62 6 7
62 7 1
62 8 5
62 9 6
62 10 8
62 11 1
62 12 5
62 13 4
62 14 8
62 15 4
62 16 8
62 17 2
62 18 2
62 19 2
62 20 4
62 21 4
62 22 4
62 23 2
62 24 2
62 25 1
62 26 8
62 27 4
62 28 1
62 29 2
62 30 4
62 31 4
62 32 6
62 33 6
62 34 8
62 35 4
62 36 8
62 37 8
62 38 6
62 39 3
62 40 7
62 41 8
62 42 7
62 43 3
62 44 8
62 45 6
62 46 7
62 47 1
62 48 3
62 49 6
62 50 4
62 51 4
62 52 8
62 53 3
62 54 1
62 55 3
62 56 7
62 57 4
62 58 6
62 59 2
62 60 2
62 61 4
63 0 6
63 1 6
63 2 3
63 3 7
63 4 6
63 5 6
63 6 7
63 7 8
63 8 4
63 9 7
63 10 4
63 11 5
63 12 5
63 13 6
63 14 7
63 15 6
63 16 2
63 17 4
63 18 5
63 19 2
63 20 7
63 21 5
63 22 7
63 23 2
63 24 1
63 25 7
63 26 6
63 27 1
63 28 8
63 29 2
63 30 5
63 31 7
63 32 2
63 33 4
63 34 8
63 35 7
63 36 8
63 37 3
63 38 8
63 39 6
63 40 5
63 41 2
63 42 1
63 43 6
63 44 5
63 45 3
63 46 1
63 47 2
63 48 4
63 49 2
63 50 3
63 51 1
63 52 1
63 53 7
63 54 4
63 55 5
63 56 5
63 57 2
63 58 7
63 59 5
63 60 1
63 61 2
63 62 2
64 0 2
64 1 2
64 2 6
64 3 6
64 4 4
64 5 1
64 6 5
64 7 5
64 8 5
64 9 3
64 10 8
64 11 2
64 12 8
64 13 1
64 14 4
64 15 8
64 16 8
64 17 2
64 18 4
64 19 3
64 20 8
64 21 3
64 22 7
64 23 7
64 24 1
64 25 1
64 26 1
64 27 5
64 28 7
64 29 8
64 30 2
64 31 8
64 32 4
64 33 7
64 34 4
64 35 6
64 36 2
64 37 2
64 38 3
64 39 5
64 40 7
64 41 5
64 42 4
64 43 4
64 44 2
64 45 7
64 46 7
64 47 7
64 48 7
64 49 2
64 50 4
64 51 2
64 52 1
64 53 3
64 54 3
64 55 6
64 56 7
64 57 2
64 58 1
64 59 2
64 60 7
64 61 1
64 62 6
64 63 1
65 0 3
65 1 7
65 2 2
65 3 4
65 4 5
65 5 2
65 6 3
65 7 6
65 8 3
65 9 5
65 10 3
65 11 6
65 12 4
65 13 1
65 14 3
65 15 6
65 16 8
65 17 6
65 18 4
65 19 3
65 20 5
65 21 1
65 22 3
65 23 1
65 24 4
65 25 1
65 26 1
65 27 2
65 28 4
65 29 4
65 30 8
65 31 7
65 32 3
65 33 2
65 34 8
65 35 8
65 36 5
65 37 4
65 38 5
65 39 8
65 40 1
65 41 7
65 42 6
65 43 6
65 44 1
65 45 3
65 46 7
65 47 1
65 48 6
65 49 4
65 50 5
65 51 5
65 52 2
65 53 6
65 54 5
65 55 2
65 56 6
65 57 2
65 58 3
65 59 7
65 60 5
65 61 5
65 62 8
65 63 1
65 64 2
66 0 1
66 1 5
66 2 2
66 3 7
66 4 1
66 5 5
66 6 2
66 7 5
66 8 6
66 9 6
66 10 7
66 11 6
66 12 1
66 13 4
66 14 1
66 15 3
66 16 6
66 17 1
66 18 7
66 19 8
66 20 1
66 21 3
66 22 1
66 23 5
66 24 7
66 25 7
66 26 3
66 27 1
66 28 2
66 29 4
66 30 2
66 31 8
66 32 5
66 33 1
66 34 3
66 35 5
66 36 6
66 37 4
66 38 6
66 39 5
66 40 3
66 41 3
66 42 2
66 43 7
66 44 4
66 45 4
66 46 6
66 47 2
66 48 5
66 49 7
66 50 5
66 51 5
66 52 5
66 53 4
66 54 5
66 55 5
66 56 5
66 57 4
66 58 7
66 59 5
66 60 4
66 61 5
66 62 7
66 63 6
66 64 5
66 65 8
67 0 7
67 1 7
67 2 3
67 3 4
67 4 8
67 5 3
67 6 4
67 7 2
67 8 6
67 9 3
67 10 4
67 11 5
67 12 1
67 13 5
67 14 1
67 15 5
67 16 5
67 17 1
67 18 8
67 19 7
67 20 1
67 21 1
67 22 3
67 23 4
67 24 4
67 25 2
67 26 7
67 27 3
67 28 7
67 29 2
67 30 3
67 31 4
67 32 7
67 33 4
67 34 6
67 35 3
67 36 7
67 37 7
67 38 8
67 39 2
67 40 8
67 41 7
67 42 1
67 43 2
67 44 8
67 45 5
67 46 6
67 47 3
67 48 4
67 49 8
67 50 4
67 51 3
67 52 1
67 53 4
67 54 6
67 55 5
67 56 7
67 57 4
67 58 6
67 59 6
67 60 5
67 61 6
67 62 3
67 63 5
67 64 6
67 65 6
67 66 5
68 0 8
68 1 2
68 2 6
68 3 2
68 4 6
68 5 5
68 6 7
68 7 6
68 8 8
68 9 4
68 10 3
68 11 6
68 12 2
68 13 3
68 14 8
68 15 6
68 16 6
68 17 3
68 18 4
68 19 2
68 20 5
68 21 2
68 22 8
68 23 3
68 24 4
68 25 3
68 26 8
68 27 2
68 28 1
68 29 1
68 30 2
68 31 1
68 32 5
68 33 2
68 34 4
68 35 6
68 36 7
68 37 5
68 38 3
68 39 3
68 40 6
68 41 2
68 42 6
68 43 1
68 44 1
68 45 2
68 46 3
68 47 6
68 48 8
68 49 1
68 50 6
68 51 8
68 52 7
68 53 8
68 54 2
68 55 4
68 56 8
68 57 7
68 58 5
68 59 4
68 60 6
68 61 8
68 62 6
68 63 1
68 64 3
68 65 7
68 66 4
68 67 3
69 0 5
69 1 6
69 2 4
69 3 8
69 4 7
69 5 5
69 6 2
69 7 3
69 8 7
69 9 2
69 10 8
69 11 2
69 12 5
69 13 5
69 14 5
69 15 8
69 16 7
69 17 5
69 18 3
69 19 1
69 20 3
69 21 5
69 22 4
69 23 1
69 24 6
69 25 2
69 26 7
69 27 8
69 28 8
69 29 2
69 30 5
69 31 8
69 32 3
69 33 4
69 34 5
69 35 8
69 36 5
69 37 1
69 38 3
69 39 2
69 40 5
69 41 3
69 42 6
69 43 1
69 44 2
69 45 2
69 46 6
69 47 7
69 48 3
69 49 3
69 50 8
69 51 3
69 52 3
69 53 5
69 54 6
69 55 4
69 56 6
69 57 1
69 58 6
69 59 7
69 60 5
69 61 4
69 62 3
69 63 1
69 64 2
69 65 6
69 66 7
69 67 5
69 68 7
